       N       E                     dE             d eps       ncg     rms
DAV:   1     -2.396000E+02    -4.00000E-01   -1.00000E-03  1536   8.000E-01
DAV:   2     -2.398000E+02    -2.00000E-01   -5.00000E-04  1536   4.000E-01
DAV:   3     -2.398667E+02    -1.33333E-01   -3.33333E-04  1536   2.667E-01
DAV:   4     -2.399000E+02    -1.00000E-01   -2.50000E-04  1536   2.000E-01
DAV:   5     -2.399200E+02    -8.00000E-02   -2.00000E-04  1536   1.600E-01
   1 F= -.240010000E+03 E0= -.240000000E+03  d E =-.240000000E+03
DAV:   1     -2.456000E+02    -4.00000E-01   -1.00000E-03  1536   8.000E-01
DAV:   2     -2.458000E+02    -2.00000E-01   -5.00000E-04  1536   4.000E-01
DAV:   3     -2.458667E+02    -1.33333E-01   -3.33333E-04  1536   2.667E-01
DAV:   4     -2.459000E+02    -1.00000E-01   -2.50000E-04  1536   2.000E-01
DAV:   5     -2.459200E+02    -8.00000E-02   -2.00000E-04  1536   1.600E-01
   2 F= -.246010000E+03 E0= -.246000000E+03  d E =-.600000000E+01
