 vasp.6.3.2 SYNTHETIC offline-demo output (NOT a real VASP run)

 POTCAR:    PAW_PBE C 08Apr2002
 POTCAR:    PAW_PBE N 08Apr2002
 POTCAR:    PAW_PBE Li 08Apr2002
 POTCAR:    PAW_PBE S 08Apr2002

   ions per type =          10    2    2    8

------------------ Iteration 1(   1) ------------------
 POSITION                                       TOTAL-FORCE (eV/Angst)
 -----------------------------------------------------------------
     0.00000    0.00000    0.00000      0.400000     0.000000     0.000000
     1.00000    0.00000    0.00000      0.400000     0.000000     0.000000
     2.00000    0.00000    0.00000      0.400000     0.000000     0.000000
     3.00000    0.00000    0.00000      0.400000     0.000000     0.000000
     4.00000    0.00000    0.00000      0.400000     0.000000     0.000000
     5.00000    0.00000    0.00000      0.400000     0.000000     0.000000
     6.00000    0.00000    0.00000      0.400000     0.000000     0.000000
     7.00000    0.00000    0.00000      0.400000     0.000000     0.000000
     8.00000    0.00000    0.00000      0.400000     0.000000     0.000000
     9.00000    0.00000    0.00000      0.400000     0.000000     0.000000
    10.00000    0.00000    0.00000      0.400000     0.000000     0.000000
    11.00000    0.00000    0.00000      0.400000     0.000000     0.000000
    12.00000    0.00000    0.00000      0.400000     0.000000     0.000000
    13.00000    0.00000    0.00000      0.400000     0.000000     0.000000
    14.00000    0.00000    0.00000      0.400000     0.000000     0.000000
    15.00000    0.00000    0.00000      0.400000     0.000000     0.000000
    16.00000    0.00000    0.00000      0.400000     0.000000     0.000000
    17.00000    0.00000    0.00000      0.400000     0.000000     0.000000
    18.00000    0.00000    0.00000      0.400000     0.000000     0.000000
    19.00000    0.00000    0.00000      0.400000     0.000000     0.000000
    20.00000    0.00000    0.00000      0.400000     0.000000     0.000000
    21.00000    0.00000    0.00000      0.400000     0.000000     0.000000
 -----------------------------------------------------------------
  FREE ENERGIE OF THE ION-ELECTRON SYSTEM (eV)
  ---------------------------------------------------
  free  energy   TOTEN  =     -240.01000000 eV

  energy  without entropy=    -240.00500000  energy(sigma->0) =     -240.00000000

------------------ Iteration 2(   1) ------------------
 POSITION                                       TOTAL-FORCE (eV/Angst)
 -----------------------------------------------------------------
     0.00000    0.00000    0.00000      0.200000     0.000000     0.000000
     1.00000    0.00000    0.00000      0.200000     0.000000     0.000000
     2.00000    0.00000    0.00000      0.200000     0.000000     0.000000
     3.00000    0.00000    0.00000      0.200000     0.000000     0.000000
     4.00000    0.00000    0.00000      0.200000     0.000000     0.000000
     5.00000    0.00000    0.00000      0.200000     0.000000     0.000000
     6.00000    0.00000    0.00000      0.200000     0.000000     0.000000
     7.00000    0.00000    0.00000      0.200000     0.000000     0.000000
     8.00000    0.00000    0.00000      0.200000     0.000000     0.000000
     9.00000    0.00000    0.00000      0.200000     0.000000     0.000000
    10.00000    0.00000    0.00000      0.200000     0.000000     0.000000
    11.00000    0.00000    0.00000      0.200000     0.000000     0.000000
    12.00000    0.00000    0.00000      0.200000     0.000000     0.000000
    13.00000    0.00000    0.00000      0.200000     0.000000     0.000000
    14.00000    0.00000    0.00000      0.200000     0.000000     0.000000
    15.00000    0.00000    0.00000      0.200000     0.000000     0.000000
    16.00000    0.00000    0.00000      0.200000     0.000000     0.000000
    17.00000    0.00000    0.00000      0.200000     0.000000     0.000000
    18.00000    0.00000    0.00000      0.200000     0.000000     0.000000
    19.00000    0.00000    0.00000      0.200000     0.000000     0.000000
    20.00000    0.00000    0.00000      0.200000     0.000000     0.000000
    21.00000    0.00000    0.00000      0.200000     0.000000     0.000000
 -----------------------------------------------------------------
  FREE ENERGIE OF THE ION-ELECTRON SYSTEM (eV)
  ---------------------------------------------------
  free  energy   TOTEN  =     -246.01000000 eV

  energy  without entropy=    -246.00500000  energy(sigma->0) =     -246.00000000

 ZBRENT: fatal error in bracketing
     please rerun with smaller EDIFF, or copy CONTCAR
     to POSCAR and continue
 General timing and accounting informations for this job:
