       N       E                     dE             d eps       ncg     rms
DAV:   1     -2.426000E+02    -4.00000E-01   -1.00000E-03  1536   8.000E-01
DAV:   2     -2.428000E+02    -2.00000E-01   -5.00000E-04  1536   4.000E-01
DAV:   3     -2.428667E+02    -1.33333E-01   -3.33333E-04  1536   2.667E-01
DAV:   4     -2.429000E+02    -1.00000E-01   -2.50000E-04  1536   2.000E-01
DAV:   5     -2.429200E+02    -8.00000E-02   -2.00000E-04  1536   1.600E-01
   1 F= -.243010000E+03 E0= -.243000000E+03  d E =-.243000000E+03
DAV:   1     -2.442000E+02    -4.00000E-01   -1.00000E-03  1536   8.000E-01
DAV:   2     -2.444000E+02    -2.00000E-01   -5.00000E-04  1536   4.000E-01
DAV:   3     -2.444667E+02    -1.33333E-01   -3.33333E-04  1536   2.667E-01
DAV:   4     -2.445000E+02    -1.00000E-01   -2.50000E-04  1536   2.000E-01
DAV:   5     -2.445200E+02    -8.00000E-02   -2.00000E-04  1536   1.600E-01
   2 F= -.244610000E+03 E0= -.244600000E+03  d E =-.160000000E+01
DAV:   1     -2.446000E+02    -4.00000E-01   -1.00000E-03  1536   8.000E-01
DAV:   2     -2.448000E+02    -2.00000E-01   -5.00000E-04  1536   4.000E-01
DAV:   3     -2.448667E+02    -1.33333E-01   -3.33333E-04  1536   2.667E-01
DAV:   4     -2.449000E+02    -1.00000E-01   -2.50000E-04  1536   2.000E-01
DAV:   5     -2.449200E+02    -8.00000E-02   -2.00000E-04  1536   1.600E-01
   3 F= -.245010000E+03 E0= -.245000000E+03  d E =-.400000000E+00
