 vasp.6.3.2 SYNTHETIC offline-demo output (NOT a real VASP run)

 POTCAR:    PAW_PBE C 08Apr2002
 POTCAR:    PAW_PBE N 08Apr2002
 POTCAR:    PAW_PBE Li 08Apr2002
 POTCAR:    PAW_PBE S 08Apr2002

   ions per type =          10    2    2    4

------------------ Iteration 1(   1) ------------------
 POSITION                                       TOTAL-FORCE (eV/Angst)
 -----------------------------------------------------------------
     0.00000    0.00000    0.00000      0.400000     0.000000     0.000000
     1.00000    0.00000    0.00000      0.400000     0.000000     0.000000
     2.00000    0.00000    0.00000      0.400000     0.000000     0.000000
     3.00000    0.00000    0.00000      0.400000     0.000000     0.000000
     4.00000    0.00000    0.00000      0.400000     0.000000     0.000000
     5.00000    0.00000    0.00000      0.400000     0.000000     0.000000
     6.00000    0.00000    0.00000      0.400000     0.000000     0.000000
     7.00000    0.00000    0.00000      0.400000     0.000000     0.000000
     8.00000    0.00000    0.00000      0.400000     0.000000     0.000000
     9.00000    0.00000    0.00000      0.400000     0.000000     0.000000
    10.00000    0.00000    0.00000      0.400000     0.000000     0.000000
    11.00000    0.00000    0.00000      0.400000     0.000000     0.000000
    12.00000    0.00000    0.00000      0.400000     0.000000     0.000000
    13.00000    0.00000    0.00000      0.400000     0.000000     0.000000
    14.00000    0.00000    0.00000      0.400000     0.000000     0.000000
    15.00000    0.00000    0.00000      0.400000     0.000000     0.000000
    16.00000    0.00000    0.00000      0.400000     0.000000     0.000000
    17.00000    0.00000    0.00000      0.400000     0.000000     0.000000
 -----------------------------------------------------------------
  FREE ENERGIE OF THE ION-ELECTRON SYSTEM (eV)
  ---------------------------------------------------
  free  energy   TOTEN  =     -243.01000000 eV

  energy  without entropy=    -243.00500000  energy(sigma->0) =     -243.00000000

------------------ Iteration 2(   1) ------------------
 POSITION                                       TOTAL-FORCE (eV/Angst)
 -----------------------------------------------------------------
     0.00000    0.00000    0.00000      0.200000     0.000000     0.000000
     1.00000    0.00000    0.00000      0.200000     0.000000     0.000000
     2.00000    0.00000    0.00000      0.200000     0.000000     0.000000
     3.00000    0.00000    0.00000      0.200000     0.000000     0.000000
     4.00000    0.00000    0.00000      0.200000     0.000000     0.000000
     5.00000    0.00000    0.00000      0.200000     0.000000     0.000000
     6.00000    0.00000    0.00000      0.200000     0.000000     0.000000
     7.00000    0.00000    0.00000      0.200000     0.000000     0.000000
     8.00000    0.00000    0.00000      0.200000     0.000000     0.000000
     9.00000    0.00000    0.00000      0.200000     0.000000     0.000000
    10.00000    0.00000    0.00000      0.200000     0.000000     0.000000
    11.00000    0.00000    0.00000      0.200000     0.000000     0.000000
    12.00000    0.00000    0.00000      0.200000     0.000000     0.000000
    13.00000    0.00000    0.00000      0.200000     0.000000     0.000000
    14.00000    0.00000    0.00000      0.200000     0.000000     0.000000
    15.00000    0.00000    0.00000      0.200000     0.000000     0.000000
    16.00000    0.00000    0.00000      0.200000     0.000000     0.000000
    17.00000    0.00000    0.00000      0.200000     0.000000     0.000000
 -----------------------------------------------------------------
  FREE ENERGIE OF THE ION-ELECTRON SYSTEM (eV)
  ---------------------------------------------------
  free  energy   TOTEN  =     -244.61000000 eV

  energy  without entropy=    -244.60500000  energy(sigma->0) =     -244.60000000

------------------ Iteration 3(   1) ------------------
 POSITION                                       TOTAL-FORCE (eV/Angst)
 -----------------------------------------------------------------
     0.00000    0.00000    0.00000      0.133333     0.000000     0.000000
     1.00000    0.00000    0.00000      0.133333     0.000000     0.000000
     2.00000    0.00000    0.00000      0.133333     0.000000     0.000000
     3.00000    0.00000    0.00000      0.133333     0.000000     0.000000
     4.00000    0.00000    0.00000      0.133333     0.000000     0.000000
     5.00000    0.00000    0.00000      0.133333     0.000000     0.000000
     6.00000    0.00000    0.00000      0.133333     0.000000     0.000000
     7.00000    0.00000    0.00000      0.133333     0.000000     0.000000
     8.00000    0.00000    0.00000      0.133333     0.000000     0.000000
     9.00000    0.00000    0.00000      0.133333     0.000000     0.000000
    10.00000    0.00000    0.00000      0.133333     0.000000     0.000000
    11.00000    0.00000    0.00000      0.133333     0.000000     0.000000
    12.00000    0.00000    0.00000      0.133333     0.000000     0.000000
    13.00000    0.00000    0.00000      0.133333     0.000000     0.000000
    14.00000    0.00000    0.00000      0.133333     0.000000     0.000000
    15.00000    0.00000    0.00000      0.133333     0.000000     0.000000
    16.00000    0.00000    0.00000      0.133333     0.000000     0.000000
    17.00000    0.00000    0.00000      0.133333     0.000000     0.000000
 -----------------------------------------------------------------
  FREE ENERGIE OF THE ION-ELECTRON SYSTEM (eV)
  ---------------------------------------------------
  free  energy   TOTEN  =     -245.01000000 eV

  energy  without entropy=    -245.00500000  energy(sigma->0) =     -245.00000000

 reached required accuracy - stopping structural energy minimisation
 General timing and accounting informations for this job:
