       N       E                     dE             d eps       ncg     rms
DAV:   1     -2.421000E+02    -4.00000E-01   -1.00000E-03  1536   8.000E-01
DAV:   2     -2.423000E+02    -2.00000E-01   -5.00000E-04  1536   4.000E-01
DAV:   3     -2.423667E+02    -1.33333E-01   -3.33333E-04  1536   2.667E-01
DAV:   4     -2.424000E+02    -1.00000E-01   -2.50000E-04  1536   2.000E-01
DAV:   5     -2.424200E+02    -8.00000E-02   -2.00000E-04  1536   1.600E-01
   1 F= -.242510000E+03 E0= -.242500000E+03  d E =-.242500000E+03
DAV:   1     -2.434000E+02    -4.00000E-01   -1.00000E-03  1536   8.000E-01
DAV:   2     -2.436000E+02    -2.00000E-01   -5.00000E-04  1536   4.000E-01
DAV:   3     -2.436667E+02    -1.33333E-01   -3.33333E-04  1536   2.667E-01
DAV:   4     -2.437000E+02    -1.00000E-01   -2.50000E-04  1536   2.000E-01
DAV:   5     -2.437200E+02    -8.00000E-02   -2.00000E-04  1536   1.600E-01
   2 F= -.243810000E+03 E0= -.243800000E+03  d E =-.130000000E+01
DAV:   1     -2.438000E+02    -4.00000E-01   -1.00000E-03  1536   8.000E-01
DAV:   2     -2.440000E+02    -2.00000E-01   -5.00000E-04  1536   4.000E-01
DAV:   3     -2.440667E+02    -1.33333E-01   -3.33333E-04  1536   2.667E-01
DAV:   4     -2.441000E+02    -1.00000E-01   -2.50000E-04  1536   2.000E-01
DAV:   5     -2.441200E+02    -8.00000E-02   -2.00000E-04  1536   1.600E-01
   3 F= -.244210000E+03 E0= -.244200000E+03  d E =-.400000000E+00
