       N       E                     dE             d eps       ncg     rms
DAV:   1     -3.080000E+01    -4.00000E-01   -1.00000E-03  1536   8.000E-01
DAV:   2     -3.100000E+01    -2.00000E-01   -5.00000E-04  1536   4.000E-01
DAV:   3     -3.106667E+01    -1.33333E-01   -3.33333E-04  1536   2.667E-01
DAV:   4     -3.110000E+01    -1.00000E-01   -2.50000E-04  1536   2.000E-01
DAV:   5     -3.112000E+01    -8.00000E-02   -2.00000E-04  1536   1.600E-01
   1 F= -.312100000E+02 E0= -.312000000E+02  d E =-.312000000E+02
DAV:   1     -3.150000E+01    -4.00000E-01   -1.00000E-03  1536   8.000E-01
DAV:   2     -3.170000E+01    -2.00000E-01   -5.00000E-04  1536   4.000E-01
DAV:   3     -3.176667E+01    -1.33333E-01   -3.33333E-04  1536   2.667E-01
DAV:   4     -3.180000E+01    -1.00000E-01   -2.50000E-04  1536   2.000E-01
DAV:   5     -3.182000E+01    -8.00000E-02   -2.00000E-04  1536   1.600E-01
   2 F= -.319100000E+02 E0= -.319000000E+02  d E =-.700000000E+00
DAV:   1     -3.160000E+01    -4.00000E-01   -1.00000E-03  1536   8.000E-01
DAV:   2     -3.180000E+01    -2.00000E-01   -5.00000E-04  1536   4.000E-01
DAV:   3     -3.186667E+01    -1.33333E-01   -3.33333E-04  1536   2.667E-01
DAV:   4     -3.190000E+01    -1.00000E-01   -2.50000E-04  1536   2.000E-01
DAV:   5     -3.192000E+01    -8.00000E-02   -2.00000E-04  1536   1.600E-01
   3 F= -.320100000E+02 E0= -.320000000E+02  d E =-.100000000E+00
