 vasp.6.3.2 SYNTHETIC offline-demo output (NOT a real VASP run)

 POTCAR:    PAW_PBE S 08Apr2002

   ions per type =           8

------------------ Iteration 1(   1) ------------------
 POSITION                                       TOTAL-FORCE (eV/Angst)
 -----------------------------------------------------------------
     0.00000    0.00000    0.00000      0.400000     0.000000     0.000000
     1.00000    0.00000    0.00000      0.400000     0.000000     0.000000
     2.00000    0.00000    0.00000      0.400000     0.000000     0.000000
     3.00000    0.00000    0.00000      0.400000     0.000000     0.000000
     4.00000    0.00000    0.00000      0.400000     0.000000     0.000000
     5.00000    0.00000    0.00000      0.400000     0.000000     0.000000
     6.00000    0.00000    0.00000      0.400000     0.000000     0.000000
     7.00000    0.00000    0.00000      0.400000     0.000000     0.000000
 -----------------------------------------------------------------
  FREE ENERGIE OF THE ION-ELECTRON SYSTEM (eV)
  ---------------------------------------------------
  free  energy   TOTEN  =      -31.21000000 eV

  energy  without entropy=     -31.20500000  energy(sigma->0) =      -31.20000000

------------------ Iteration 2(   1) ------------------
 POSITION                                       TOTAL-FORCE (eV/Angst)
 -----------------------------------------------------------------
     0.00000    0.00000    0.00000      0.200000     0.000000     0.000000
     1.00000    0.00000    0.00000      0.200000     0.000000     0.000000
     2.00000    0.00000    0.00000      0.200000     0.000000     0.000000
     3.00000    0.00000    0.00000      0.200000     0.000000     0.000000
     4.00000    0.00000    0.00000      0.200000     0.000000     0.000000
     5.00000    0.00000    0.00000      0.200000     0.000000     0.000000
     6.00000    0.00000    0.00000      0.200000     0.000000     0.000000
     7.00000    0.00000    0.00000      0.200000     0.000000     0.000000
 -----------------------------------------------------------------
  FREE ENERGIE OF THE ION-ELECTRON SYSTEM (eV)
  ---------------------------------------------------
  free  energy   TOTEN  =      -31.91000000 eV

  energy  without entropy=     -31.90500000  energy(sigma->0) =      -31.90000000

------------------ Iteration 3(   1) ------------------
 POSITION                                       TOTAL-FORCE (eV/Angst)
 -----------------------------------------------------------------
     0.00000    0.00000    0.00000      0.133333     0.000000     0.000000
     1.00000    0.00000    0.00000      0.133333     0.000000     0.000000
     2.00000    0.00000    0.00000      0.133333     0.000000     0.000000
     3.00000    0.00000    0.00000      0.133333     0.000000     0.000000
     4.00000    0.00000    0.00000      0.133333     0.000000     0.000000
     5.00000    0.00000    0.00000      0.133333     0.000000     0.000000
     6.00000    0.00000    0.00000      0.133333     0.000000     0.000000
     7.00000    0.00000    0.00000      0.133333     0.000000     0.000000
 -----------------------------------------------------------------
  FREE ENERGIE OF THE ION-ELECTRON SYSTEM (eV)
  ---------------------------------------------------
  free  energy   TOTEN  =      -32.01000000 eV

  energy  without entropy=     -32.00500000  energy(sigma->0) =      -32.00000000

 reached required accuracy - stopping structural energy minimisation
 General timing and accounting informations for this job:
