slab_clean
   1.00000000000000
    10.0000000    0.0000000    0.0000000
     0.0000000   10.0000000    0.0000000
     0.0000000    0.0000000   20.0000000
   C  N
   10  2
Selective dynamics
Cartesian
    0.00000000    0.00000000   10.00000000   T   T   T
    1.10000000    0.00000000   10.00000000   T   T   T
    2.20000000    0.00000000   10.00000000   T   T   T
    3.30000000    0.00000000   10.00000000   T   T   T
    4.40000000    0.00000000   10.00000000   T   T   T
    5.50000000    0.00000000   10.00000000   T   T   T
    6.60000000    0.00000000   10.00000000   T   T   T
    7.70000000    0.00000000   10.00000000   T   T   T
    8.80000000    0.00000000   10.00000000   T   T   T
    9.90000000    0.00000000   10.00000000   T   T   T
   11.00000000    0.00000000   10.00000000   T   T   T
   12.10000000    0.00000000   10.00000000   T   T   T
