       N       E                     dE             d eps       ncg     rms
DAV:   1     -2.077000E+02    -4.00000E-01   -1.00000E-03  1536   8.000E-01
DAV:   2     -2.079000E+02    -2.00000E-01   -5.00000E-04  1536   4.000E-01
DAV:   3     -2.079667E+02    -1.33333E-01   -3.33333E-04  1536   2.667E-01
DAV:   4     -2.080000E+02    -1.00000E-01   -2.50000E-04  1536   2.000E-01
DAV:   5     -2.080200E+02    -8.00000E-02   -2.00000E-04  1536   1.600E-01
   1 F= -.208110000E+03 E0= -.208100000E+03  d E =-.208100000E+03
DAV:   1     -2.096000E+02    -4.00000E-01   -1.00000E-03  1536   8.000E-01
DAV:   2     -2.098000E+02    -2.00000E-01   -5.00000E-04  1536   4.000E-01
DAV:   3     -2.098667E+02    -1.33333E-01   -3.33333E-04  1536   2.667E-01
DAV:   4     -2.099000E+02    -1.00000E-01   -2.50000E-04  1536   2.000E-01
DAV:   5     -2.099200E+02    -8.00000E-02   -2.00000E-04  1536   1.600E-01
   2 F= -.210010000E+03 E0= -.210000000E+03  d E =-.190000000E+01
DAV:   1     -2.101000E+02    -4.00000E-01   -1.00000E-03  1536   8.000E-01
DAV:   2     -2.103000E+02    -2.00000E-01   -5.00000E-04  1536   4.000E-01
DAV:   3     -2.103667E+02    -1.33333E-01   -3.33333E-04  1536   2.667E-01
DAV:   4     -2.104000E+02    -1.00000E-01   -2.50000E-04  1536   2.000E-01
DAV:   5     -2.104200E+02    -8.00000E-02   -2.00000E-04  1536   1.600E-01
   3 F= -.210510000E+03 E0= -.210500000E+03  d E =-.500000000E+00
