 vasp.6.3.2 SYNTHETIC offline-demo output (NOT a real VASP run)

 POTCAR:    PAW_PBE C 08Apr2002
 POTCAR:    PAW_PBE N 08Apr2002

   ions per type =          10    2

------------------ Iteration 1(   1) ------------------
 POSITION                                       TOTAL-FORCE (eV/Angst)
 -----------------------------------------------------------------
     0.00000    0.00000    0.00000      0.400000     0.000000     0.000000
     1.00000    0.00000    0.00000      0.400000     0.000000     0.000000
     2.00000    0.00000    0.00000      0.400000     0.000000     0.000000
     3.00000    0.00000    0.00000      0.400000     0.000000     0.000000
     4.00000    0.00000    0.00000      0.400000     0.000000     0.000000
     5.00000    0.00000    0.00000      0.400000     0.000000     0.000000
     6.00000    0.00000    0.00000      0.400000     0.000000     0.000000
     7.00000    0.00000    0.00000      0.400000     0.000000     0.000000
     8.00000    0.00000    0.00000      0.400000     0.000000     0.000000
     9.00000    0.00000    0.00000      0.400000     0.000000     0.000000
    10.00000    0.00000    0.00000      0.400000     0.000000     0.000000
    11.00000    0.00000    0.00000      0.400000     0.000000     0.000000
 -----------------------------------------------------------------
  FREE ENERGIE OF THE ION-ELECTRON SYSTEM (eV)
  ---------------------------------------------------
  free  energy   TOTEN  =     -208.11000000 eV

  energy  without entropy=    -208.10500000  energy(sigma->0) =     -208.10000000

------------------ Iteration 2(   1) ------------------
 POSITION                                       TOTAL-FORCE (eV/Angst)
 -----------------------------------------------------------------
     0.00000    0.00000    0.00000      0.200000     0.000000     0.000000
     1.00000    0.00000    0.00000      0.200000     0.000000     0.000000
     2.00000    0.00000    0.00000      0.200000     0.000000     0.000000
     3.00000    0.00000    0.00000      0.200000     0.000000     0.000000
     4.00000    0.00000    0.00000      0.200000     0.000000     0.000000
     5.00000    0.00000    0.00000      0.200000     0.000000     0.000000
     6.00000    0.00000    0.00000      0.200000     0.000000     0.000000
     7.00000    0.00000    0.00000      0.200000     0.000000     0.000000
     8.00000    0.00000    0.00000      0.200000     0.000000     0.000000
     9.00000    0.00000    0.00000      0.200000     0.000000     0.000000
    10.00000    0.00000    0.00000      0.200000     0.000000     0.000000
    11.00000    0.00000    0.00000      0.200000     0.000000     0.000000
 -----------------------------------------------------------------
  FREE ENERGIE OF THE ION-ELECTRON SYSTEM (eV)
  ---------------------------------------------------
  free  energy   TOTEN  =     -210.01000000 eV

  energy  without entropy=    -210.00500000  energy(sigma->0) =     -210.00000000

------------------ Iteration 3(   1) ------------------
 POSITION                                       TOTAL-FORCE (eV/Angst)
 -----------------------------------------------------------------
     0.00000    0.00000    0.00000      0.133333     0.000000     0.000000
     1.00000    0.00000    0.00000      0.133333     0.000000     0.000000
     2.00000    0.00000    0.00000      0.133333     0.000000     0.000000
     3.00000    0.00000    0.00000      0.133333     0.000000     0.000000
     4.00000    0.00000    0.00000      0.133333     0.000000     0.000000
     5.00000    0.00000    0.00000      0.133333     0.000000     0.000000
     6.00000    0.00000    0.00000      0.133333     0.000000     0.000000
     7.00000    0.00000    0.00000      0.133333     0.000000     0.000000
     8.00000    0.00000    0.00000      0.133333     0.000000     0.000000
     9.00000    0.00000    0.00000      0.133333     0.000000     0.000000
    10.00000    0.00000    0.00000      0.133333     0.000000     0.000000
    11.00000    0.00000    0.00000      0.133333     0.000000     0.000000
 -----------------------------------------------------------------
  FREE ENERGIE OF THE ION-ELECTRON SYSTEM (eV)
  ---------------------------------------------------
  free  energy   TOTEN  =     -210.51000000 eV

  energy  without entropy=    -210.50500000  energy(sigma->0) =     -210.50000000

 reached required accuracy - stopping structural energy minimisation
 General timing and accounting informations for this job:
